32690 41328 
32211 41563 
32898 41174 
32807 41215 
33066 41117 
34568 40245 
35211 39769 
35003 39923 
34134 40526 
33751 40758 
34745 40106 
33841 40695 
34185 40477 
34360 40399 
35730 39356 
35522 39510 
33164 41066 
33458 40927 
33977 40631 
34879 39986 
